data;

param X := 2;

# Conjuntos
set G := Solar Eolica Termica;
set C := Santiago Concepcion;
set T := 1 2 3 4 5 6 7 8 9 10 11 12 13 14 15 16 17 18 19 20 21 22 23 24;

# Gamma - Costo de generación
param Gamma :=
Solar    5
Eolica   8
Termica 45 ;

# Theta - Costo por pérdidas de transmisión
param Theta: Santiago Concepcion :=
Solar     1.5     3.2
Eolica    2.1     1.8
Termica   0.5     2.5 ;

# Phi - Capacidad máxima de transmisión
param Phi: Santiago Concepcion :=
Solar    300     200
Eolica   250     250
Termica  800     600 ;

# Delta - Demanda base (ya la multiplicaremos por (1 + X/100) en el modelo)
param Delta:
              1    2    3    4    5    6    7    8    9   10   11   12   13   14   15   16   17   18   19   20   21   22   23   24 :=
Santiago     200  180  170  170  180  220  300  400  450  480  500  520  510  500  490  500  550  600  650  620  550  450  350  250
Concepcion   100   90   85   85   90  110  150  200  220  240  250  260  250  240  230  240  280  320  350  330  280  220  160  120 ;

# Omega - Capacidad máxima de generación
param Omega:
              1    2    3    4    5    6    7    8    9   10   11   12   13   14   15   16   17   18   19   20   21   22   23   24 :=
Solar         0    0    0    0    0    0   50  150  250  350  400  400  400  380  300  200  100   20    0    0    0    0    0    0
Eolica      150  180  200  250  250  200  150  120  100   80   80  100  120  150  180  220  250  280  300  280  250  200  180  150
Termica     800  800  800  800  800  800  800  800  800  800  800  800  800  800  800  800  800  800  800  800  800  800  800  800 ;

end;